\ENCODING=ISO-8859-1
\Problem name: knapsack_problem

Maximize
 obj: q_00 + q_01 + q_02 + q_04 + 0.559042501370757 q_05 + q_06 + q_104 + q_105
      + q_106 + 0.920193389637104 q_107 + q_108 + q_109 + q_11 + q_110
      + 0.155246072076585 q_111 + q_112 + q_114 + q_115 + q_117 + q_118 + q_119
      + q_17 + q_20 + 0.110256087050615 q_21 + q_23 + q_24 + q_26 + q_27 + q_29
      + q_30 + q_32 + q_33 + q_34 + q_36 + q_38 + q_41 + q_42
      + 0.184156488902164 q_44 + q_46 + 0.101554937650494 q_47 + q_50 + q_51
      + q_53 + q_57 + q_60 + q_63 + q_64 + q_65 + 0.184156488902164 q_66 + q_67
      + q_69 + q_70 + q_72 + q_73 + q_78 + q_80 + q_82 + q_84 + q_85 + q_87
      + q_90 + q_91 + 0.957426363439665 q_93 + q_96 + 0.448786414320141 q_97
      + q_99
Subject To
 c1: 98 q_00 + 29 q_01 + 39 q_02 + 14 q_03 + 73 q_04 + 62 q_05 + 67 q_06
     + 24 q_07 + 59 q_08 + 10 q_09 + 34 q_10 + 78 q_100 + 24 q_101 + 85 q_102
     + 43 q_103 + 88 q_104 + 7 q_105 + 56 q_106 + 52 q_107 + 55 q_108
     + 24 q_109 + 80 q_11 + 36 q_110 + 48 q_111 + 9 q_112 + 30 q_113 + 84 q_114
     + 75 q_115 + 20 q_116 + 33 q_117 + 33 q_118 + 81 q_119 + 69 q_12 + 8 q_13
     + 85 q_14 + 60 q_15 + 45 q_16 + 89 q_17 + 98 q_18 + 42 q_19 + 30 q_20
     + 85 q_21 + 50 q_22 + 19 q_23 + 10 q_24 + 47 q_25 + 20 q_26 + 12 q_27
     + 18 q_28 + 16 q_29 + 57 q_30 + 34 q_31 + 89 q_32 + 79 q_33 + 95 q_34
     + 86 q_35 + 6 q_36 + 7 q_37 + 78 q_38 + 64 q_39 + 14 q_40 + 80 q_41
     + 4 q_42 + 8 q_43 + 66 q_44 + 47 q_45 + 17 q_46 + 46 q_47 + 26 q_48
     + 77 q_49 + 100 q_50 + 76 q_51 + 12 q_52 + 100 q_53 + 48 q_54 + 50 q_55
     + 77 q_56 + 11 q_57 + 71 q_58 + 84 q_59 + 71 q_60 + 36 q_61 + 25 q_62
     + 46 q_63 + 79 q_64 + 76 q_65 + 26 q_66 + 37 q_67 + 12 q_68 + 14 q_69
     + 67 q_70 + 44 q_71 + 14 q_72 + 38 q_73 + 61 q_74 + 39 q_75 + 71 q_76
     + 29 q_77 + 96 q_78 + 39 q_79 + 34 q_80 + 92 q_81 + 88 q_82 + 60 q_83
     + 44 q_84 + 42 q_85 + 66 q_86 + 87 q_87 + 14 q_88 + 8 q_89 + 62 q_90
     + 70 q_91 + 28 q_92 + 91 q_93 + 100 q_94 + 27 q_95 + 69 q_96 + 83 q_97
     + 72 q_98 + 47 q_99 <= 3279
Bounds
 0 <= q_00 <= 1
 0 <= q_01 <= 1
 0 <= q_02 <= 1
 0 <= q_03 <= 1
 0 <= q_04 <= 1
 0 <= q_05 <= 1
 0 <= q_06 <= 1
 0 <= q_07 <= 1
 0 <= q_08 <= 1
 0 <= q_09 <= 1
 0 <= q_10 <= 1
 0 <= q_100 <= 1
 0 <= q_101 <= 1
 0 <= q_102 <= 1
 0 <= q_103 <= 1
 0 <= q_104 <= 1
 0 <= q_105 <= 1
 0 <= q_106 <= 1
 0 <= q_107 <= 1
 0 <= q_108 <= 1
 0 <= q_109 <= 1
 0 <= q_11 <= 1
 0 <= q_110 <= 1
 0 <= q_111 <= 1
 0 <= q_112 <= 1
 0 <= q_113 <= 1
 0 <= q_114 <= 1
 0 <= q_115 <= 1
 0 <= q_116 <= 1
 0 <= q_117 <= 1
 0 <= q_118 <= 1
 0 <= q_119 <= 1
 0 <= q_12 <= 1
 0 <= q_13 <= 1
 0 <= q_14 <= 1
 0 <= q_15 <= 1
 0 <= q_16 <= 1
 0 <= q_17 <= 1
 0 <= q_18 <= 1
 0 <= q_19 <= 1
 0 <= q_20 <= 1
 0 <= q_21 <= 1
 0 <= q_22 <= 1
 0 <= q_23 <= 1
 0 <= q_24 <= 1
 0 <= q_25 <= 1
 0 <= q_26 <= 1
 0 <= q_27 <= 1
 0 <= q_28 <= 1
 0 <= q_29 <= 1
 0 <= q_30 <= 1
 0 <= q_31 <= 1
 0 <= q_32 <= 1
 0 <= q_33 <= 1
 0 <= q_34 <= 1
 0 <= q_35 <= 1
 0 <= q_36 <= 1
 0 <= q_37 <= 1
 0 <= q_38 <= 1
 0 <= q_39 <= 1
 0 <= q_40 <= 1
 0 <= q_41 <= 1
 0 <= q_42 <= 1
 0 <= q_43 <= 1
 0 <= q_44 <= 1
 0 <= q_45 <= 1
 0 <= q_46 <= 1
 0 <= q_47 <= 1
 0 <= q_48 <= 1
 0 <= q_49 <= 1
 0 <= q_50 <= 1
 0 <= q_51 <= 1
 0 <= q_52 <= 1
 0 <= q_53 <= 1
 0 <= q_54 <= 1
 0 <= q_55 <= 1
 0 <= q_56 <= 1
 0 <= q_57 <= 1
 0 <= q_58 <= 1
 0 <= q_59 <= 1
 0 <= q_60 <= 1
 0 <= q_61 <= 1
 0 <= q_62 <= 1
 0 <= q_63 <= 1
 0 <= q_64 <= 1
 0 <= q_65 <= 1
 0 <= q_66 <= 1
 0 <= q_67 <= 1
 0 <= q_68 <= 1
 0 <= q_69 <= 1
 0 <= q_70 <= 1
 0 <= q_71 <= 1
 0 <= q_72 <= 1
 0 <= q_73 <= 1
 0 <= q_74 <= 1
 0 <= q_75 <= 1
 0 <= q_76 <= 1
 0 <= q_77 <= 1
 0 <= q_78 <= 1
 0 <= q_79 <= 1
 0 <= q_80 <= 1
 0 <= q_81 <= 1
 0 <= q_82 <= 1
 0 <= q_83 <= 1
 0 <= q_84 <= 1
 0 <= q_85 <= 1
 0 <= q_86 <= 1
 0 <= q_87 <= 1
 0 <= q_88 <= 1
 0 <= q_89 <= 1
 0 <= q_90 <= 1
 0 <= q_91 <= 1
 0 <= q_92 <= 1
 0 <= q_93 <= 1
 0 <= q_94 <= 1
 0 <= q_95 <= 1
 0 <= q_96 <= 1
 0 <= q_97 <= 1
 0 <= q_98 <= 1
 0 <= q_99 <= 1
Binaries
 q_00  q_01  q_02  q_03  q_04  q_05  q_06  q_07  q_08  q_09  q_10  q_100 
 q_101  q_102  q_103  q_104  q_105  q_106  q_107  q_108  q_109  q_11  q_110 
 q_111  q_112  q_113  q_114  q_115  q_116  q_117  q_118  q_119  q_12  q_13 
 q_14  q_15  q_16  q_17  q_18  q_19  q_20  q_21  q_22  q_23  q_24  q_25  q_26 
 q_27  q_28  q_29  q_30  q_31  q_32  q_33  q_34  q_35  q_36  q_37  q_38  q_39 
 q_40  q_41  q_42  q_43  q_44  q_45  q_46  q_47  q_48  q_49  q_50  q_51  q_52 
 q_53  q_54  q_55  q_56  q_57  q_58  q_59  q_60  q_61  q_62  q_63  q_64  q_65 
 q_66  q_67  q_68  q_69  q_70  q_71  q_72  q_73  q_74  q_75  q_76  q_77  q_78 
 q_79  q_80  q_81  q_82  q_83  q_84  q_85  q_86  q_87  q_88  q_89  q_90  q_91 
 q_92  q_93  q_94  q_95  q_96  q_97  q_98  q_99 
End
